1458.77
0 111 112 84 117 81 119 105 106 102 101 99 104 107 103 116 110 115 109 114 118 91 93 0 
0 87 86 85 89 92 90 94 96 95 100 97 98 108 113 83 120 0 
0 88 82 69 70 71 74 72 75 78 77 76 73 68 79 80 0 
0 67 53 54 52 57 59 65 61 62 64 60 58 55 56 66 50 0 
0 40 43 45 48 47 46 44 41 42 39 38 37 49 51 32 35 36 34 0 
0 18 14 16 17 19 25 24 22 27 30 31 28 23 20 21 26 33 29 0 
0 6 7 9 10 11 15 4 3 5 2 1 13 12 8 63 0 
